(set-logic QF_BV)
(declare-fun state_0 () (_ BitVec 1))
(declare-fun state_1 () (_ BitVec 1))
(declare-fun x_0 () (_ BitVec 8))
(declare-fun y_0 () (_ BitVec 8))
(declare-fun y_1 () (_ BitVec 8))
(define-fun $e1 () (_ BitVec 8) (_ bv0 8))
(define-fun $e2 () (_ BitVec 8) (_ bv254 8))
(define-fun $e3 () (_ BitVec 1) (ite (= x_0 $e1) #b1 #b0))
(define-fun $e4 () (_ BitVec 1) (ite (= state_1 $e3) #b1 #b0))
(define-fun $e5 () (_ BitVec 1) (ite (= x_0 (bvnot $e1)) #b1 #b0))
(define-fun $e6 () (_ BitVec 1) (bvand state_1 $e5))
(define-fun $e7 () (_ BitVec 1) (bvand (bvnot state_1) (bvnot $e5)))
(define-fun $e8 () (_ BitVec 1) (bvand (bvnot $e6) (bvnot $e7)))
(define-fun $e9 () (_ BitVec 1) (bvand state_0 (bvnot $e8)))
(define-fun $e10 () (_ BitVec 1) (bvand (bvnot state_0) (bvnot $e4)))
(define-fun $e11 () (_ BitVec 8) (bvadd y_0 (bvnot $e1)))
(define-fun $e12 () (_ BitVec 1) (ite (= y_1 $e11) #b1 #b0))
(define-fun $e13 () (_ BitVec 8) (bvadd x_0 (bvnot $e2)))
(define-fun $e14 () (_ BitVec 1) (ite (= y_1 $e13) #b1 #b0))
(define-fun $e15 () (_ BitVec 1) (bvand $e5 (bvnot $e12)))
(define-fun $e16 () (_ BitVec 1) (bvand (bvnot $e5) (bvnot $e14)))
(define-fun $e17 () (_ BitVec 8) (bvadd y_0 (bvnot $e2)))
(define-fun $e18 () (_ BitVec 1) (ite (= y_1 $e17) #b1 #b0))
(define-fun $e19 () (_ BitVec 1) (bvand $e5 (bvnot $e18)))
(define-fun $e20 () (_ BitVec 1) (bvand state_0 $e19))
(define-fun $e21 () (_ BitVec 1) (bvand (bvnot state_0) $e15))
(assert (not (= (bvnot $e9) #b0)))
(assert (not (= (bvnot $e10) #b0)))
(assert (not (= (bvnot $e20) #b0)))
(assert (not (= (bvnot $e21) #b0)))
(assert (not (= (bvnot $e16) #b0)))
(check-sat)
(exit)
